(set-info :source |printed by MathSAT|)
(declare-fun |!{$(in_main#0)<k>}| () Int)
(declare-fun |!{$(in_main#0)<k>}.next| () Int)
(declare-fun |!{$(in_main#0)<k#1>}| () Int)
(declare-fun |!{$(in_main#0)<k#1>}.next| () Int)
(declare-fun |!{%memaddr}| () Int)
(declare-fun |!{%memaddr}.next| () Int)
(declare-fun |!{%mem.0}| () (Array Int Int))
(declare-fun |!{%mem.0}.next| () (Array Int Int))
(declare-fun |!{$(in_main#0)<N>}| () Int)
(declare-fun |!{$(in_main#0)<N>}.next| () Int)
(declare-fun |!{$(in_main#0)<&array1>}| () Int)
(declare-fun |!{$(in_main#0)<&array1>}.next| () Int)
(declare-fun |!{$(in_main#0)<&array2>}| () Int)
(declare-fun |!{$(in_main#0)<&array2>}.next| () Int)
(declare-fun |!{$(in_main#0)<$(in___VERIFIER_nondet_int#2)<h#<__VERIFIER_nondet_int.return>>>}| () Int)
(declare-fun |!{$(in_main#0)<$(in___VERIFIER_nondet_int#4)<h#<__VERIFIER_nondet_int.return>>>}| () Int)
(declare-fun |!{$(in_main#0)<$(in___VERIFIER_nondet_int#5)<h#<__VERIFIER_nondet_int.return>>>}| () Int)
(declare-fun !pc () Int)
(declare-fun !pc.next () Int)
(declare-fun |%{$(in_main#0)<k#1>}#1| () Int)
(declare-fun |%{%mem.0}#3| () (Array Int Int))
(define-fun .def_52 () Int (! !pc :next !pc.next))
(define-fun .def_55 () Bool (! (= .def_52 2) :init true))
(define-fun .def_224 () Bool (= .def_52 57))
(define-fun .def_143 () Bool (= !pc.next 120))
(define-fun .def_227 () Bool (and .def_143 .def_224))
(define-fun .def_214 () Bool (= |!{%mem.0}.next| |%{%mem.0}#3|))
(define-fun .def_211 () Bool (= |!{$(in_main#0)<k#1>}.next| 0))
(define-fun .def_8 () Int (! |!{$(in_main#0)<k>}| :next |!{$(in_main#0)<k>}.next|))
(define-fun .def_104 () Bool (= .def_8 |!{$(in_main#0)<k>}.next|))
(define-fun .def_212 () Bool (and .def_104 .def_211))
(define-fun .def_12 () Int (! |!{%memaddr}| :next |!{%memaddr}.next|))
(define-fun .def_108 () Bool (= .def_12 |!{%memaddr}.next|))
(define-fun .def_213 () Bool (and .def_108 .def_212))
(define-fun .def_215 () Bool (and .def_213 .def_214))
(define-fun .def_16 () Int (! |!{$(in_main#0)<N>}| :next |!{$(in_main#0)<N>}.next|))
(define-fun .def_111 () Bool (= .def_16 |!{$(in_main#0)<N>}.next|))
(define-fun .def_216 () Bool (and .def_111 .def_215))
(define-fun .def_18 () Int (! |!{$(in_main#0)<&array1>}| :next |!{$(in_main#0)<&array1>}.next|))
(define-fun .def_113 () Bool (= .def_18 |!{$(in_main#0)<&array1>}.next|))
(define-fun .def_217 () Bool (and .def_113 .def_216))
(define-fun .def_20 () Int (! |!{$(in_main#0)<&array2>}| :next |!{$(in_main#0)<&array2>}.next|))
(define-fun .def_115 () Bool (= .def_20 |!{$(in_main#0)<&array2>}.next|))
(define-fun .def_218 () Bool (and .def_115 .def_217))
(define-fun .def_14 () (Array Int Int) (! |!{%mem.0}| :next |!{%mem.0}.next|))
(define-fun .def_196 () Bool (= .def_14 |%{%mem.0}#3|))
(define-fun .def_161 () Bool (<= .def_16 0))
(define-fun .def_197 () Bool (and .def_161 .def_196))
(define-fun .def_166 () Int (+ .def_16 .def_20))
(define-fun .def_178 () Int (+ .def_166 (- 2)))
(define-fun .def_167 () Int (+ .def_166 (- 1)))
(define-fun .def_168 () Int (select .def_14 .def_167))
(define-fun .def_169 () Int (+ .def_16 .def_18))
(define-fun .def_170 () Int (+ .def_169 (- 1)))
(define-fun .def_171 () (Array Int Int) (store .def_14 .def_170 .def_168))
(define-fun .def_179 () Int (select .def_171 .def_178))
(define-fun .def_180 () Int (+ .def_169 (- 2)))
(define-fun .def_181 () (Array Int Int) (store .def_171 .def_180 .def_179))
(define-fun .def_189 () Bool (= .def_181 |%{%mem.0}#3|))
(define-fun .def_172 () Bool (<= .def_16 1))
(define-fun .def_173 () Bool (not .def_172))
(define-fun .def_191 () Bool (and .def_173 .def_189))
(define-fun .def_188 () Bool (= .def_171 |%{%mem.0}#3|))
(define-fun .def_190 () Bool (and .def_172 .def_188))
(define-fun .def_192 () Bool (or .def_190 .def_191))
(define-fun .def_162 () Bool (not .def_161))
(define-fun .def_193 () Bool (and .def_162 .def_192))
(define-fun .def_198 () Bool (or .def_193 .def_197))
(define-fun .def_219 () Bool (and .def_198 .def_218))
(define-fun .def_154 () Bool (<= .def_16 .def_8))
(define-fun .def_220 () Bool (and .def_154 .def_219))
(define-fun .def_228 () Bool (and .def_220 .def_227))
(define-fun .def_88 () Bool (= !pc.next 57))
(define-fun .def_225 () Bool (and .def_88 .def_224))
(define-fun .def_158 () Int (+ .def_8 .def_20))
(define-fun .def_156 () Int (+ .def_8 .def_18))
(define-fun .def_157 () (Array Int Int) (store .def_14 .def_156 |!{$(in_main#0)<$(in___VERIFIER_nondet_int#4)<h#<__VERIFIER_nondet_int.return>>>}|))
(define-fun .def_159 () (Array Int Int) (store .def_157 .def_158 |!{$(in_main#0)<$(in___VERIFIER_nondet_int#5)<h#<__VERIFIER_nondet_int.return>>>}|))
(define-fun .def_205 () Bool (= |!{%mem.0}.next| .def_159))
(define-fun .def_200 () Int (* (- 1) |!{$(in_main#0)<k>}.next|))
(define-fun .def_201 () Int (+ .def_8 .def_200))
(define-fun .def_202 () Bool (= .def_201 (- 1)))
(define-fun .def_10 () Int (! |!{$(in_main#0)<k#1>}| :next |!{$(in_main#0)<k#1>}.next|))
(define-fun .def_106 () Bool (= .def_10 |!{$(in_main#0)<k#1>}.next|))
(define-fun .def_203 () Bool (and .def_106 .def_202))
(define-fun .def_204 () Bool (and .def_108 .def_203))
(define-fun .def_206 () Bool (and .def_204 .def_205))
(define-fun .def_207 () Bool (and .def_111 .def_206))
(define-fun .def_208 () Bool (and .def_113 .def_207))
(define-fun .def_209 () Bool (and .def_115 .def_208))
(define-fun .def_155 () Bool (not .def_154))
(define-fun .def_210 () Bool (and .def_155 .def_209))
(define-fun .def_226 () Bool (and .def_210 .def_225))
(define-fun .def_229 () Bool (or .def_226 .def_228))
(define-fun .def_147 () Bool (= !pc.next 0))
(define-fun .def_138 () Bool (= .def_52 120))
(define-fun .def_148 () Bool (and .def_138 .def_147))
(define-fun .def_91 () Bool (<= .def_16 .def_10))
(define-fun .def_130 () Bool (and .def_91 .def_104))
(define-fun .def_131 () Bool (and .def_106 .def_130))
(define-fun .def_132 () Bool (and .def_108 .def_131))
(define-fun .def_78 () Bool (= .def_14 |!{%mem.0}.next|))
(define-fun .def_133 () Bool (and .def_78 .def_132))
(define-fun .def_134 () Bool (and .def_111 .def_133))
(define-fun .def_135 () Bool (and .def_113 .def_134))
(define-fun .def_136 () Bool (and .def_115 .def_135))
(define-fun .def_149 () Bool (and .def_136 .def_148))
(define-fun .def_144 () Bool (and .def_138 .def_143))
(define-fun .def_119 () Int (* (- 1) |!{$(in_main#0)<k#1>}.next|))
(define-fun .def_120 () Int (+ .def_10 .def_119))
(define-fun .def_121 () Bool (= .def_120 (- 1)))
(define-fun .def_122 () Bool (and .def_104 .def_121))
(define-fun .def_123 () Bool (and .def_108 .def_122))
(define-fun .def_124 () Bool (and .def_78 .def_123))
(define-fun .def_125 () Bool (and .def_111 .def_124))
(define-fun .def_126 () Bool (and .def_113 .def_125))
(define-fun .def_127 () Bool (and .def_115 .def_126))
(define-fun .def_95 () Int (+ .def_10 .def_20))
(define-fun .def_96 () Int (select .def_14 .def_95))
(define-fun .def_93 () Int (+ .def_10 .def_18))
(define-fun .def_94 () Int (select .def_14 .def_93))
(define-fun .def_97 () Bool (= .def_94 .def_96))
(define-fun .def_98 () Int (ite .def_97 1 0))
(define-fun .def_99 () Bool (= .def_98 0))
(define-fun .def_100 () Bool (not .def_99))
(define-fun .def_128 () Bool (and .def_100 .def_127))
(define-fun .def_92 () Bool (not .def_91))
(define-fun .def_129 () Bool (and .def_92 .def_128))
(define-fun .def_145 () Bool (and .def_129 .def_144))
(define-fun .def_140 () Bool (= !pc.next 140))
(define-fun .def_141 () Bool (and .def_138 .def_140))
(define-fun .def_105 () Bool (and .def_99 .def_104))
(define-fun .def_107 () Bool (and .def_105 .def_106))
(define-fun .def_109 () Bool (and .def_107 .def_108))
(define-fun .def_110 () Bool (and .def_78 .def_109))
(define-fun .def_112 () Bool (and .def_110 .def_111))
(define-fun .def_114 () Bool (and .def_112 .def_113))
(define-fun .def_116 () Bool (and .def_114 .def_115))
(define-fun .def_117 () Bool (and .def_92 .def_116))
(define-fun .def_142 () Bool (and .def_117 .def_141))
(define-fun .def_146 () Bool (or .def_142 .def_145))
(define-fun .def_150 () Bool (or .def_146 .def_149))
(define-fun .def_89 () Bool (and .def_55 .def_88))
(define-fun .def_84 () Bool (= |!{$(in_main#0)<&array2>}.next| 2))
(define-fun .def_82 () Bool (= |!{$(in_main#0)<&array1>}.next| 1))
(define-fun .def_80 () Bool (= |!{$(in_main#0)<N>}.next| |!{$(in_main#0)<$(in___VERIFIER_nondet_int#2)<h#<__VERIFIER_nondet_int.return>>>}|))
(define-fun .def_76 () Bool (= |!{%memaddr}.next| 3))
(define-fun .def_74 () Bool (= |!{$(in_main#0)<k#1>}.next| |%{$(in_main#0)<k#1>}#1|))
(define-fun .def_73 () Bool (= |!{$(in_main#0)<k>}.next| 0))
(define-fun .def_75 () Bool (and .def_73 .def_74))
(define-fun .def_77 () Bool (and .def_75 .def_76))
(define-fun .def_79 () Bool (and .def_77 .def_78))
(define-fun .def_81 () Bool (and .def_79 .def_80))
(define-fun .def_83 () Bool (and .def_81 .def_82))
(define-fun .def_85 () Bool (and .def_83 .def_84))
(define-fun .def_68 () Bool (<= |!{$(in_main#0)<$(in___VERIFIER_nondet_int#2)<h#<__VERIFIER_nondet_int.return>>>}| 0))
(define-fun .def_69 () Bool (not .def_68))
(define-fun .def_70 () Int (ite .def_69 1 0))
(define-fun .def_71 () Bool (= .def_70 0))
(define-fun .def_72 () Bool (not .def_71))
(define-fun .def_86 () Bool (and .def_72 .def_85))
(define-fun .def_90 () Bool (and .def_86 .def_89))
(define-fun .def_151 () Bool (or .def_90 .def_150))
(define-fun .def_230 () Bool (! (or .def_151 .def_229) :trans true))
(define-fun .def_152 () Bool (= .def_52 140))
(define-fun .def_231 () Bool (! (not .def_152) :invar-property 0 :invar-property-name ||))
(assert true)
